		units real
		atom_style full
		pair_style buck/coul/long/cs 10.0
		bond_style harmonic
####		angle_style harmonic
		kspace_style pppm 0.0001
		pair_modify tail yes	
